CSW08
Position Depot: Random
Horizon for Depot: Small
Position of customers: Cluster
Distribution of the demand: Medium
Width of time windows: Wide
Distribution of the service: Large

VEHICLE 
NUMBER 	 CAPACITY 
 6 	 	 97 
 
CUSTOMER
CUST NO. 	 XCOORD.  	 YCOORD. 	 DEMAND 	 READY TIME 	 DUE DATE 	 SERVICE TIME 
 0 	 	 257 	 	 359 	 	 0 	 	 0 	 	 1993 	 	 0 
  1 	 	 462 	 	 611 	 	 9 	 	 1127 	 	 1516 	 	 198 
  2 	 	 756 	 	 600 	 	 1 	 	 1482 	 	 1715 	 	 166 
  3 	 	 581 	 	 415 	 	 9 	 	 56 	 	 544 	 	 131 
  4 	 	 120 	 	 695 	 	 7 	 	 1683 	 	 1993 	 	 152 
  5 	 	 796 	 	 719 	 	 9 	 	 1015 	 	 1382 	 	 115 
  6 	 	 555 	 	 379 	 	 2 	 	 268 	 	 628 	 	 132 
  7 	 	 446 	 	 600 	 	 5 	 	 1527 	 	 1993 	 	 119 
  8 	 	 507 	 	 269 	 	 3 	 	 671 	 	 1017 	 	 101 
  9 	 	 731 	 	 477 	 	 7 	 	 1451 	 	 1666 	 	 155 
  10 	 	 720 	 	 541 	 	 8 	 	 1409 	 	 1728 	 	 128 
  11 	 	 430 	 	 763 	 	 9 	 	 340 	 	 627 	 	 188 
  12 	 	 80 	 	 760 	 	 1 	 	 202 	 	 482 	 	 149 
  13 	 	 432 	 	 617 	 	 3 	 	 372 	 	 858 	 	 161 
  14 	 	 112 	 	 748 	 	 3 	 	 694 	 	 998 	 	 172 
  15 	 	 455 	 	 568 	 	 10 	 	 600 	 	 1077 	 	 159 
  16 	 	 543 	 	 785 	 	 10 	 	 1437 	 	 1668 	 	 139 
  17 	 	 568 	 	 467 	 	 1 	 	 54 	 	 362 	 	 182 
  18 	 	 610 	 	 548 	 	 8 	 	 1058 	 	 1491 	 	 181 
  19 	 	 435 	 	 670 	 	 4 	 	 1446 	 	 1919 	 	 191 
  20 	 	 90 	 	 740 	 	 10 	 	 1275 	 	 1612 	 	 164 
  21 	 	 562 	 	 424 	 	 3 	 	 835 	 	 1230 	 	 152 
  22 	 	 609 	 	 407 	 	 89 	 	 1050 	 	 1284 	 	 162 
  23 	 	 422 	 	 600 	 	 8 	 	 1615 	 	 1969 	 	 191 
  24 	 	 126 	 	 649 	 	 1 	 	 796 	 	 1295 	 	 184 
  25 	 	 420 	 	 622 	 	 4 	 	 928 	 	 1158 	 	 162 
  26 	 	 802 	 	 580 	 	 2 	 	 199 	 	 646 	 	 116 
  27 	 	 57 	 	 743 	 	 7 	 	 617 	 	 982 	 	 176 
  28 	 	 803 	 	 600 	 	 8 	 	 318 	 	 815 	 	 117 
  29 	 	 641 	 	 340 	 	 7 	 	 1665 	 	 1993 	 	 111 
  30 	 	 529 	 	 419 	 	 7 	 	 1375 	 	 1794 	 	 127 
  31 	 	 487 	 	 570 	 	 5 	 	 693 	 	 936 	 	 105 
  32 	 	 485 	 	 637 	 	 8 	 	 676 	 	 1133 	 	 132 
  33 	 	 604 	 	 445 	 	 2 	 	 168 	 	 393 	 	 127 
  34 	 	 678 	 	 603 	 	 10 	 	 1687 	 	 1928 	 	 196 
  35 	 	 752 	 	 553 	 	 6 	 	 1066 	 	 1409 	 	 195 
  36 	 	 449 	 	 622 	 	 1 	 	 629 	 	 958 	 	 131 
  37 	 	 590 	 	 542 	 	 72 	 	 173 	 	 417 	 	 121 
  38 	 	 473 	 	 532 	 	 6 	 	 73 	 	 527 	 	 128 
  39 	 	 747 	 	 583 	 	 6 	 	 425 	 	 743 	 	 108 
  40 	 	 57 	 	 643 	 	 55 	 	 1513 	 	 1926 	 	 112 
  41 	 	 95 	 	 668 	 	 5 	 	 1680 	 	 1993 	 	 101 
  42 	 	 502 	 	 648 	 	 1 	 	 795 	 	 1209 	 	 145 
  43 	 	 621 	 	 344 	 	 4 	 	 998 	 	 1310 	 	 127 
  44 	 	 491 	 	 658 	 	 8 	 	 27 	 	 417 	 	 184 
  45 	 	 566 	 	 393 	 	 2 	 	 477 	 	 693 	 	 192 
  46 	 	 693 	 	 651 	 	 7 	 	 314 	 	 577 	 	 192 
  47 	 	 110 	 	 714 	 	 2 	 	 1405 	 	 1868 	 	 129 
  48 	 	 570 	 	 377 	 	 9 	 	 1510 	 	 1734 	 	 189 
  49 	 	 513 	 	 492 	 	 71 	 	 217 	 	 640 	 	 199 
  50 	 	 648 	 	 527 	 	 3 	 	 1497 	 	 1983 	 	 190 
 